nK = 1773;
nT = 8;
nI = 21;
L = 29;
TT = 363;
np = 1;
nc = 3;
b = [45, 35, 34, 51, 60, 24, 24, 70, 29, 36, 64, 45, 69, 24, 20, 55, 41, 47, 35, 20, 66];
d = [106, 101, 65, 87, 104, 143, 133, 106, 131, 105, 116, 96, 108, 142, 131, 124, 114, 134, 131, 149, 132];
m = [1.4, 2.5, 1.5, 2.5, 2.5, 2.5, 1.1, 2.2, 1.3, 2.1, 2.4, 1.2, 1.6, 2.4, 1.6, 2.5, 2.2, 1, 2.1, 1.9, 2.5];
pt = [0.26, 0.2, 0.33, 0.25, 0.26, 0.34, 0.26, 0.25];
st = [14.56, 8.4, 16.17, 10.25, 15.6, 13.94, 14.82, 11.75];
arc = {<1, 0, 1, 1, 0, 0, 0, [1, 1, 1, 1, 1, 1, 1, 1]>, <2, 1, 2, 1, 0, 0, 0, [1, 1, 1, 1, 1, 1, 1, 1]>, <3, 2, 3, 1, 0, 0, 0, [1, 1, 1, 1, 1, 1, 1, 1]>, <4, 3, 4, 1, 0, 0, 0, [1, 1, 1, 1, 1, 1, 1, 1]>, <5, 4, 5, 1, 0, 0, 0, [1, 1, 1, 1, 1, 1, 1, 1]>, <6, 5, 6, 1, 0, 0, 0, [1, 1, 1, 1, 1, 1, 1, 1]>, <7, 6, 7, 1, 0, 0, 0, [1, 1, 1, 1, 1, 1, 1, 1]>, <8, 7, 8, 1, 0, 0, 0, [1, 1, 1, 1, 1, 1, 1, 1]>, <9, 8, 9, 1, 0, 0, 0, [1, 1, 1, 1, 1, 1, 1, 1]>, <10, 9, 10, 1, 0, 0, 0, [1, 1, 1, 1, 1, 1, 1, 1]>, <11, 10, 11, 1, 0, 0, 0, [1, 1, 1, 1, 1, 1, 1, 1]>, <12, 11, 12, 1, 0, 0, 0, [1, 1, 1, 1, 1, 1, 1, 1]>, <13, 12, 13, 1, 0, 0, 0, [1, 1, 1, 1, 1, 1, 1, 1]>, <14, 13, 14, 1, 0, 0, 0, [1, 1, 1, 1, 1, 1, 1, 1]>, <15, 14, 15, 1, 0, 0, 0, [1, 1, 1, 1, 1, 1, 1, 1]>, <16, 15, 16, 1, 0, 0, 0, [1, 1, 1, 1, 1, 1, 1, 1]>, <17, 16, 17, 1, 0, 0, 0, [1, 1, 1, 1, 1, 1, 1, 1]>, <18, 17, 18, 1, 0, 0, 0, [1, 1, 1, 1, 1, 1, 1, 1]>, <19, 18, 19, 1, 0, 0, 0, [1, 1, 1, 1, 1, 1, 1, 1]>, <20, 19, 20, 1, 0, 0, 0, [1, 1, 1, 1, 1, 1, 1, 1]>, <21, 20, 21, 1, 0, 0, 0, [1, 1, 1, 1, 1, 1, 1, 1]>, <22, 21, 22, 1, 0, 0, 0, [1, 1, 1, 1, 1, 1, 1, 1]>, <23, 22, 23, 1, 0, 0, 0, [1, 1, 1, 1, 1, 1, 1, 1]>, <24, 23, 24, 1, 0, 0, 0, [1, 1, 1, 1, 1, 1, 1, 1]>, <25, 24, 25, 1, 0, 0, 0, [1, 1, 1, 1, 1, 1, 1, 1]>, <26, 25, 26, 1, 0, 0, 0, [1, 1, 1, 1, 1, 1, 1, 1]>, <27, 26, 27, 1, 0, 0, 0, [1, 1, 1, 1, 1, 1, 1, 1]>, <28, 27, 28, 1, 0, 0, 0, [1, 1, 1, 1, 1, 1, 1, 1]>, <29, 28, 29, 1, 0, 0, 0, [1, 1, 1, 1, 1, 1, 1, 1]>, <30, 0, 13, 13, 1, 0, 0, [1, 0, 0, 0, 0, 1, 1, 1]>, <31, 1, 14, 13, 1, 0, 0, [1, 0, 0, 0, 0, 1, 1, 1]>, <32, 2, 15, 13, 1, 0, 0, [1, 0, 0, 0, 0, 1, 1, 1]>, <33, 3, 16, 13, 1, 0, 0, [1, 0, 0, 0, 0, 1, 1, 1]>, <34, 4, 17, 13, 1, 0, 0, [1, 0, 0, 0, 0, 1, 1, 1]>, <35, 5, 18, 13, 1, 0, 0, [1, 0, 0, 0, 0, 1, 1, 1]>, <36, 7, 20, 13, 1, 0, 0, [1, 0, 0, 0, 0, 1, 1, 1]>, <37, 8, 21, 13, 1, 0, 0, [1, 0, 0, 0, 0, 1, 1, 1]>, <38, 9, 22, 13, 1, 0, 0, [1, 0, 0, 0, 0, 1, 1, 1]>, <39, 10, 23, 13, 1, 0, 0, [1, 0, 0, 0, 0, 1, 1, 1]>, <40, 11, 24, 13, 1, 0, 0, [1, 0, 0, 0, 0, 1, 1, 1]>, <41, 12, 25, 13, 1, 0, 0, [1, 0, 0, 0, 0, 1, 1, 1]>, <42, 13, 26, 13, 1, 0, 0, [1, 0, 0, 0, 0, 1, 1, 1]>, <43, 14, 27, 13, 1, 0, 0, [1, 0, 0, 0, 0, 1, 1, 1]>, <44, 15, 28, 13, 1, 0, 0, [1, 0, 0, 0, 0, 1, 1, 1]>, <45, 16, 29, 13, 1, 0, 0, [1, 0, 0, 0, 0, 1, 1, 1]>, <46, 0, 13, 13, 2, 0, 0, [0, 0, 0, 1, 1, 1, 1, 0]>, <47, 1, 14, 13, 2, 0, 0, [0, 0, 0, 1, 1, 1, 1, 0]>, <48, 2, 15, 13, 2, 0, 0, [0, 0, 0, 1, 1, 1, 1, 0]>, <49, 3, 16, 13, 2, 0, 0, [0, 0, 0, 1, 1, 1, 1, 0]>, <50, 4, 17, 13, 2, 0, 0, [0, 0, 0, 1, 1, 1, 1, 0]>, <51, 5, 18, 13, 2, 0, 0, [0, 0, 0, 1, 1, 1, 1, 0]>, <52, 7, 20, 13, 2, 0, 0, [0, 0, 0, 1, 1, 1, 1, 0]>, <53, 8, 21, 13, 2, 0, 0, [0, 0, 0, 1, 1, 1, 1, 0]>, <54, 9, 22, 13, 2, 0, 0, [0, 0, 0, 1, 1, 1, 1, 0]>, <55, 10, 23, 13, 2, 0, 0, [0, 0, 0, 1, 1, 1, 1, 0]>, <56, 11, 24, 13, 2, 0, 0, [0, 0, 0, 1, 1, 1, 1, 0]>, <57, 12, 25, 13, 2, 0, 0, [0, 0, 0, 1, 1, 1, 1, 0]>, <58, 13, 26, 13, 2, 0, 0, [0, 0, 0, 1, 1, 1, 1, 0]>, <59, 14, 27, 13, 2, 0, 0, [0, 0, 0, 1, 1, 1, 1, 0]>, <60, 15, 28, 13, 2, 0, 0, [0, 0, 0, 1, 1, 1, 1, 0]>, <61, 16, 29, 13, 2, 0, 0, [0, 0, 0, 1, 1, 1, 1, 0]>, <62, 0, 12, 12, 3, 0, 1, [0, 1, 1, 1, 1, 0, 0, 0]>, <63, 1, 13, 12, 3, 0, 1, [0, 1, 1, 1, 1, 0, 0, 0]>, <64, 2, 14, 12, 3, 0, 1, [0, 1, 1, 1, 1, 0, 0, 0]>, <65, 3, 15, 12, 3, 0, 1, [0, 1, 1, 1, 1, 0, 0, 0]>, <66, 4, 16, 12, 3, 0, 1, [0, 1, 1, 1, 1, 0, 0, 0]>, <67, 5, 17, 12, 3, 0, 1, [0, 1, 1, 1, 1, 0, 0, 0]>, <68, 8, 20, 12, 3, 0, 1, [0, 1, 1, 1, 1, 0, 0, 0]>, <69, 9, 21, 12, 3, 0, 1, [0, 1, 1, 1, 1, 0, 0, 0]>, <70, 10, 22, 12, 3, 0, 1, [0, 1, 1, 1, 1, 0, 0, 0]>, <71, 11, 23, 12, 3, 0, 1, [0, 1, 1, 1, 1, 0, 0, 0]>, <72, 12, 24, 12, 3, 0, 1, [0, 1, 1, 1, 1, 0, 0, 0]>, <73, 13, 25, 12, 3, 0, 1, [0, 1, 1, 1, 1, 0, 0, 0]>, <74, 14, 26, 12, 3, 0, 1, [0, 1, 1, 1, 1, 0, 0, 0]>, <75, 15, 27, 12, 3, 0, 1, [0, 1, 1, 1, 1, 0, 0, 0]>, <76, 16, 28, 12, 3, 0, 1, [0, 1, 1, 1, 1, 0, 0, 0]>, <77, 17, 29, 12, 3, 0, 1, [0, 1, 1, 1, 1, 0, 0, 0]>, <78, 0, 14, 14, 4, 0, 1, [1, 1, 0, 0, 0, 0, 1, 1]>, <79, 1, 15, 14, 4, 0, 1, [1, 1, 0, 0, 0, 0, 1, 1]>, <80, 2, 16, 14, 4, 0, 1, [1, 1, 0, 0, 0, 0, 1, 1]>, <81, 3, 17, 14, 4, 0, 1, [1, 1, 0, 0, 0, 0, 1, 1]>, <82, 4, 18, 14, 4, 0, 1, [1, 1, 0, 0, 0, 0, 1, 1]>, <83, 5, 19, 14, 4, 0, 1, [1, 1, 0, 0, 0, 0, 1, 1]>, <84, 6, 20, 14, 4, 0, 1, [1, 1, 0, 0, 0, 0, 1, 1]>, <85, 7, 21, 14, 4, 0, 1, [1, 1, 0, 0, 0, 0, 1, 1]>, <86, 8, 22, 14, 4, 0, 1, [1, 1, 0, 0, 0, 0, 1, 1]>, <87, 9, 23, 14, 4, 0, 1, [1, 1, 0, 0, 0, 0, 1, 1]>, <88, 10, 24, 14, 4, 0, 1, [1, 1, 0, 0, 0, 0, 1, 1]>, <89, 11, 25, 14, 4, 0, 1, [1, 1, 0, 0, 0, 0, 1, 1]>, <90, 12, 26, 14, 4, 0, 1, [1, 1, 0, 0, 0, 0, 1, 1]>, <91, 13, 27, 14, 4, 0, 1, [1, 1, 0, 0, 0, 0, 1, 1]>, <92, 14, 28, 14, 4, 0, 1, [1, 1, 0, 0, 0, 0, 1, 1]>, <93, 15, 29, 14, 4, 0, 1, [1, 1, 0, 0, 0, 0, 1, 1]>, <94, 0, 12, 12, 5, 0, 0, [0, 0, 0, 0, 1, 1, 1, 1]>, <95, 1, 13, 12, 5, 0, 0, [0, 0, 0, 0, 1, 1, 1, 1]>, <96, 2, 14, 12, 5, 0, 0, [0, 0, 0, 0, 1, 1, 1, 1]>, <97, 3, 15, 12, 5, 0, 0, [0, 0, 0, 0, 1, 1, 1, 1]>, <98, 4, 16, 12, 5, 0, 0, [0, 0, 0, 0, 1, 1, 1, 1]>, <99, 5, 17, 12, 5, 0, 0, [0, 0, 0, 0, 1, 1, 1, 1]>, <100, 8, 20, 12, 5, 0, 0, [0, 0, 0, 0, 1, 1, 1, 1]>, <101, 9, 21, 12, 5, 0, 0, [0, 0, 0, 0, 1, 1, 1, 1]>, <102, 10, 22, 12, 5, 0, 0, [0, 0, 0, 0, 1, 1, 1, 1]>, <103, 11, 23, 12, 5, 0, 0, [0, 0, 0, 0, 1, 1, 1, 1]>, <104, 12, 24, 12, 5, 0, 0, [0, 0, 0, 0, 1, 1, 1, 1]>, <105, 13, 25, 12, 5, 0, 0, [0, 0, 0, 0, 1, 1, 1, 1]>, <106, 14, 26, 12, 5, 0, 0, [0, 0, 0, 0, 1, 1, 1, 1]>, <107, 15, 27, 12, 5, 0, 0, [0, 0, 0, 0, 1, 1, 1, 1]>, <108, 16, 28, 12, 5, 0, 0, [0, 0, 0, 0, 1, 1, 1, 1]>, <109, 17, 29, 12, 5, 0, 0, [0, 0, 0, 0, 1, 1, 1, 1]>, <110, 0, 15, 15, 6, 1, 0, [0, 0, 0, 0, 1, 1, 1, 1]>, <111, 1, 16, 15, 6, 1, 0, [0, 0, 0, 0, 1, 1, 1, 1]>, <112, 2, 17, 15, 6, 1, 0, [0, 0, 0, 0, 1, 1, 1, 1]>, <113, 3, 18, 15, 6, 1, 0, [0, 0, 0, 0, 1, 1, 1, 1]>, <114, 4, 19, 15, 6, 1, 0, [0, 0, 0, 0, 1, 1, 1, 1]>, <115, 5, 20, 15, 6, 1, 0, [0, 0, 0, 0, 1, 1, 1, 1]>, <116, 6, 21, 15, 6, 1, 0, [0, 0, 0, 0, 1, 1, 1, 1]>, <117, 7, 22, 15, 6, 1, 0, [0, 0, 0, 0, 1, 1, 1, 1]>, <118, 8, 23, 15, 6, 1, 0, [0, 0, 0, 0, 1, 1, 1, 1]>, <119, 9, 24, 15, 6, 1, 0, [0, 0, 0, 0, 1, 1, 1, 1]>, <120, 10, 25, 15, 6, 1, 0, [0, 0, 0, 0, 1, 1, 1, 1]>, <121, 11, 26, 15, 6, 1, 0, [0, 0, 0, 0, 1, 1, 1, 1]>, <122, 12, 27, 15, 6, 1, 0, [0, 0, 0, 0, 1, 1, 1, 1]>, <123, 13, 28, 15, 6, 1, 0, [0, 0, 0, 0, 1, 1, 1, 1]>, <124, 14, 29, 15, 6, 1, 0, [0, 0, 0, 0, 1, 1, 1, 1]>, <125, 0, 13, 13, 7, 0, 0, [1, 1, 1, 0, 0, 0, 0, 1]>, <126, 1, 14, 13, 7, 0, 0, [1, 1, 1, 0, 0, 0, 0, 1]>, <127, 2, 15, 13, 7, 0, 0, [1, 1, 1, 0, 0, 0, 0, 1]>, <128, 3, 16, 13, 7, 0, 0, [1, 1, 1, 0, 0, 0, 0, 1]>, <129, 4, 17, 13, 7, 0, 0, [1, 1, 1, 0, 0, 0, 0, 1]>, <130, 5, 18, 13, 7, 0, 0, [1, 1, 1, 0, 0, 0, 0, 1]>, <131, 7, 20, 13, 7, 0, 0, [1, 1, 1, 0, 0, 0, 0, 1]>, <132, 8, 21, 13, 7, 0, 0, [1, 1, 1, 0, 0, 0, 0, 1]>, <133, 9, 22, 13, 7, 0, 0, [1, 1, 1, 0, 0, 0, 0, 1]>, <134, 10, 23, 13, 7, 0, 0, [1, 1, 1, 0, 0, 0, 0, 1]>, <135, 11, 24, 13, 7, 0, 0, [1, 1, 1, 0, 0, 0, 0, 1]>, <136, 12, 25, 13, 7, 0, 0, [1, 1, 1, 0, 0, 0, 0, 1]>, <137, 13, 26, 13, 7, 0, 0, [1, 1, 1, 0, 0, 0, 0, 1]>, <138, 14, 27, 13, 7, 0, 0, [1, 1, 1, 0, 0, 0, 0, 1]>, <139, 15, 28, 13, 7, 0, 0, [1, 1, 1, 0, 0, 0, 0, 1]>, <140, 16, 29, 13, 7, 0, 0, [1, 1, 1, 0, 0, 0, 0, 1]>, <141, 0, 12, 12, 8, 0, 1, [0, 1, 1, 1, 1, 0, 0, 0]>, <142, 1, 13, 12, 8, 0, 1, [0, 1, 1, 1, 1, 0, 0, 0]>, <143, 2, 14, 12, 8, 0, 1, [0, 1, 1, 1, 1, 0, 0, 0]>, <144, 3, 15, 12, 8, 0, 1, [0, 1, 1, 1, 1, 0, 0, 0]>, <145, 4, 16, 12, 8, 0, 1, [0, 1, 1, 1, 1, 0, 0, 0]>, <146, 5, 17, 12, 8, 0, 1, [0, 1, 1, 1, 1, 0, 0, 0]>, <147, 8, 20, 12, 8, 0, 1, [0, 1, 1, 1, 1, 0, 0, 0]>, <148, 9, 21, 12, 8, 0, 1, [0, 1, 1, 1, 1, 0, 0, 0]>, <149, 10, 22, 12, 8, 0, 1, [0, 1, 1, 1, 1, 0, 0, 0]>, <150, 11, 23, 12, 8, 0, 1, [0, 1, 1, 1, 1, 0, 0, 0]>, <151, 12, 24, 12, 8, 0, 1, [0, 1, 1, 1, 1, 0, 0, 0]>, <152, 13, 25, 12, 8, 0, 1, [0, 1, 1, 1, 1, 0, 0, 0]>, <153, 14, 26, 12, 8, 0, 1, [0, 1, 1, 1, 1, 0, 0, 0]>, <154, 15, 27, 12, 8, 0, 1, [0, 1, 1, 1, 1, 0, 0, 0]>, <155, 16, 28, 12, 8, 0, 1, [0, 1, 1, 1, 1, 0, 0, 0]>, <156, 17, 29, 12, 8, 0, 1, [0, 1, 1, 1, 1, 0, 0, 0]>, <157, 0, 14, 14, 9, 0, 1, [1, 0, 0, 0, 0, 1, 1, 1]>, <158, 1, 15, 14, 9, 0, 1, [1, 0, 0, 0, 0, 1, 1, 1]>, <159, 2, 16, 14, 9, 0, 1, [1, 0, 0, 0, 0, 1, 1, 1]>, <160, 3, 17, 14, 9, 0, 1, [1, 0, 0, 0, 0, 1, 1, 1]>, <161, 4, 18, 14, 9, 0, 1, [1, 0, 0, 0, 0, 1, 1, 1]>, <162, 5, 19, 14, 9, 0, 1, [1, 0, 0, 0, 0, 1, 1, 1]>, <163, 6, 20, 14, 9, 0, 1, [1, 0, 0, 0, 0, 1, 1, 1]>, <164, 7, 21, 14, 9, 0, 1, [1, 0, 0, 0, 0, 1, 1, 1]>, <165, 8, 22, 14, 9, 0, 1, [1, 0, 0, 0, 0, 1, 1, 1]>, <166, 9, 23, 14, 9, 0, 1, [1, 0, 0, 0, 0, 1, 1, 1]>, <167, 10, 24, 14, 9, 0, 1, [1, 0, 0, 0, 0, 1, 1, 1]>, <168, 11, 25, 14, 9, 0, 1, [1, 0, 0, 0, 0, 1, 1, 1]>, <169, 12, 26, 14, 9, 0, 1, [1, 0, 0, 0, 0, 1, 1, 1]>, <170, 13, 27, 14, 9, 0, 1, [1, 0, 0, 0, 0, 1, 1, 1]>, <171, 14, 28, 14, 9, 0, 1, [1, 0, 0, 0, 0, 1, 1, 1]>, <172, 15, 29, 14, 9, 0, 1, [1, 0, 0, 0, 0, 1, 1, 1]>, <173, 0, 15, 15, 10, 0, 0, [1, 0, 0, 0, 0, 1, 1, 1]>, <174, 1, 16, 15, 10, 0, 0, [1, 0, 0, 0, 0, 1, 1, 1]>, <175, 2, 17, 15, 10, 0, 0, [1, 0, 0, 0, 0, 1, 1, 1]>, <176, 3, 18, 15, 10, 0, 0, [1, 0, 0, 0, 0, 1, 1, 1]>, <177, 4, 19, 15, 10, 0, 0, [1, 0, 0, 0, 0, 1, 1, 1]>, <178, 5, 20, 15, 10, 0, 0, [1, 0, 0, 0, 0, 1, 1, 1]>, <179, 6, 21, 15, 10, 0, 0, [1, 0, 0, 0, 0, 1, 1, 1]>, <180, 7, 22, 15, 10, 0, 0, [1, 0, 0, 0, 0, 1, 1, 1]>, <181, 8, 23, 15, 10, 0, 0, [1, 0, 0, 0, 0, 1, 1, 1]>, <182, 9, 24, 15, 10, 0, 0, [1, 0, 0, 0, 0, 1, 1, 1]>, <183, 10, 25, 15, 10, 0, 0, [1, 0, 0, 0, 0, 1, 1, 1]>, <184, 11, 26, 15, 10, 0, 0, [1, 0, 0, 0, 0, 1, 1, 1]>, <185, 12, 27, 15, 10, 0, 0, [1, 0, 0, 0, 0, 1, 1, 1]>, <186, 13, 28, 15, 10, 0, 0, [1, 0, 0, 0, 0, 1, 1, 1]>, <187, 14, 29, 15, 10, 0, 0, [1, 0, 0, 0, 0, 1, 1, 1]>, <188, 0, 12, 12, 11, 0, 0, [0, 0, 1, 1, 1, 1, 0, 0]>, <189, 1, 13, 12, 11, 0, 0, [0, 0, 1, 1, 1, 1, 0, 0]>, <190, 2, 14, 12, 11, 0, 0, [0, 0, 1, 1, 1, 1, 0, 0]>, <191, 3, 15, 12, 11, 0, 0, [0, 0, 1, 1, 1, 1, 0, 0]>, <192, 4, 16, 12, 11, 0, 0, [0, 0, 1, 1, 1, 1, 0, 0]>, <193, 5, 17, 12, 11, 0, 0, [0, 0, 1, 1, 1, 1, 0, 0]>, <194, 8, 20, 12, 11, 0, 0, [0, 0, 1, 1, 1, 1, 0, 0]>, <195, 9, 21, 12, 11, 0, 0, [0, 0, 1, 1, 1, 1, 0, 0]>, <196, 10, 22, 12, 11, 0, 0, [0, 0, 1, 1, 1, 1, 0, 0]>, <197, 11, 23, 12, 11, 0, 0, [0, 0, 1, 1, 1, 1, 0, 0]>, <198, 12, 24, 12, 11, 0, 0, [0, 0, 1, 1, 1, 1, 0, 0]>, <199, 13, 25, 12, 11, 0, 0, [0, 0, 1, 1, 1, 1, 0, 0]>, <200, 14, 26, 12, 11, 0, 0, [0, 0, 1, 1, 1, 1, 0, 0]>, <201, 15, 27, 12, 11, 0, 0, [0, 0, 1, 1, 1, 1, 0, 0]>, <202, 16, 28, 12, 11, 0, 0, [0, 0, 1, 1, 1, 1, 0, 0]>, <203, 17, 29, 12, 11, 0, 0, [0, 0, 1, 1, 1, 1, 0, 0]>, <204, 0, 14, 14, 12, 0, 0, [1, 0, 0, 0, 0, 1, 1, 1]>, <205, 1, 15, 14, 12, 0, 0, [1, 0, 0, 0, 0, 1, 1, 1]>, <206, 2, 16, 14, 12, 0, 0, [1, 0, 0, 0, 0, 1, 1, 1]>, <207, 3, 17, 14, 12, 0, 0, [1, 0, 0, 0, 0, 1, 1, 1]>, <208, 4, 18, 14, 12, 0, 0, [1, 0, 0, 0, 0, 1, 1, 1]>, <209, 5, 19, 14, 12, 0, 0, [1, 0, 0, 0, 0, 1, 1, 1]>, <210, 6, 20, 14, 12, 0, 0, [1, 0, 0, 0, 0, 1, 1, 1]>, <211, 7, 21, 14, 12, 0, 0, [1, 0, 0, 0, 0, 1, 1, 1]>, <212, 8, 22, 14, 12, 0, 0, [1, 0, 0, 0, 0, 1, 1, 1]>, <213, 9, 23, 14, 12, 0, 0, [1, 0, 0, 0, 0, 1, 1, 1]>, <214, 10, 24, 14, 12, 0, 0, [1, 0, 0, 0, 0, 1, 1, 1]>, <215, 11, 25, 14, 12, 0, 0, [1, 0, 0, 0, 0, 1, 1, 1]>, <216, 12, 26, 14, 12, 0, 0, [1, 0, 0, 0, 0, 1, 1, 1]>, <217, 13, 27, 14, 12, 0, 0, [1, 0, 0, 0, 0, 1, 1, 1]>, <218, 14, 28, 14, 12, 0, 0, [1, 0, 0, 0, 0, 1, 1, 1]>, <219, 15, 29, 14, 12, 0, 0, [1, 0, 0, 0, 0, 1, 1, 1]>, <220, 0, 13, 13, 13, 1, 0, [1, 1, 1, 0, 0, 0, 0, 1]>, <221, 1, 14, 13, 13, 1, 0, [1, 1, 1, 0, 0, 0, 0, 1]>, <222, 2, 15, 13, 13, 1, 0, [1, 1, 1, 0, 0, 0, 0, 1]>, <223, 3, 16, 13, 13, 1, 0, [1, 1, 1, 0, 0, 0, 0, 1]>, <224, 4, 17, 13, 13, 1, 0, [1, 1, 1, 0, 0, 0, 0, 1]>, <225, 5, 18, 13, 13, 1, 0, [1, 1, 1, 0, 0, 0, 0, 1]>, <226, 7, 20, 13, 13, 1, 0, [1, 1, 1, 0, 0, 0, 0, 1]>, <227, 8, 21, 13, 13, 1, 0, [1, 1, 1, 0, 0, 0, 0, 1]>, <228, 9, 22, 13, 13, 1, 0, [1, 1, 1, 0, 0, 0, 0, 1]>, <229, 10, 23, 13, 13, 1, 0, [1, 1, 1, 0, 0, 0, 0, 1]>, <230, 11, 24, 13, 13, 1, 0, [1, 1, 1, 0, 0, 0, 0, 1]>, <231, 12, 25, 13, 13, 1, 0, [1, 1, 1, 0, 0, 0, 0, 1]>, <232, 13, 26, 13, 13, 1, 0, [1, 1, 1, 0, 0, 0, 0, 1]>, <233, 14, 27, 13, 13, 1, 0, [1, 1, 1, 0, 0, 0, 0, 1]>, <234, 15, 28, 13, 13, 1, 0, [1, 1, 1, 0, 0, 0, 0, 1]>, <235, 16, 29, 13, 13, 1, 0, [1, 1, 1, 0, 0, 0, 0, 1]>, <236, 0, 13, 13, 14, 0, 0, [0, 0, 0, 1, 1, 1, 1, 0]>, <237, 1, 14, 13, 14, 0, 0, [0, 0, 0, 1, 1, 1, 1, 0]>, <238, 2, 15, 13, 14, 0, 0, [0, 0, 0, 1, 1, 1, 1, 0]>, <239, 3, 16, 13, 14, 0, 0, [0, 0, 0, 1, 1, 1, 1, 0]>, <240, 4, 17, 13, 14, 0, 0, [0, 0, 0, 1, 1, 1, 1, 0]>, <241, 5, 18, 13, 14, 0, 0, [0, 0, 0, 1, 1, 1, 1, 0]>, <242, 7, 20, 13, 14, 0, 0, [0, 0, 0, 1, 1, 1, 1, 0]>, <243, 8, 21, 13, 14, 0, 0, [0, 0, 0, 1, 1, 1, 1, 0]>, <244, 9, 22, 13, 14, 0, 0, [0, 0, 0, 1, 1, 1, 1, 0]>, <245, 10, 23, 13, 14, 0, 0, [0, 0, 0, 1, 1, 1, 1, 0]>, <246, 11, 24, 13, 14, 0, 0, [0, 0, 0, 1, 1, 1, 1, 0]>, <247, 12, 25, 13, 14, 0, 0, [0, 0, 0, 1, 1, 1, 1, 0]>, <248, 13, 26, 13, 14, 0, 0, [0, 0, 0, 1, 1, 1, 1, 0]>, <249, 14, 27, 13, 14, 0, 0, [0, 0, 0, 1, 1, 1, 1, 0]>, <250, 15, 28, 13, 14, 0, 0, [0, 0, 0, 1, 1, 1, 1, 0]>, <251, 16, 29, 13, 14, 0, 0, [0, 0, 0, 1, 1, 1, 1, 0]>, <252, 0, 15, 15, 15, 0, 0, [0, 0, 0, 0, 1, 1, 1, 1]>, <253, 1, 16, 15, 15, 0, 0, [0, 0, 0, 0, 1, 1, 1, 1]>, <254, 2, 17, 15, 15, 0, 0, [0, 0, 0, 0, 1, 1, 1, 1]>, <255, 3, 18, 15, 15, 0, 0, [0, 0, 0, 0, 1, 1, 1, 1]>, <256, 4, 19, 15, 15, 0, 0, [0, 0, 0, 0, 1, 1, 1, 1]>, <257, 5, 20, 15, 15, 0, 0, [0, 0, 0, 0, 1, 1, 1, 1]>, <258, 6, 21, 15, 15, 0, 0, [0, 0, 0, 0, 1, 1, 1, 1]>, <259, 7, 22, 15, 15, 0, 0, [0, 0, 0, 0, 1, 1, 1, 1]>, <260, 8, 23, 15, 15, 0, 0, [0, 0, 0, 0, 1, 1, 1, 1]>, <261, 9, 24, 15, 15, 0, 0, [0, 0, 0, 0, 1, 1, 1, 1]>, <262, 10, 25, 15, 15, 0, 0, [0, 0, 0, 0, 1, 1, 1, 1]>, <263, 11, 26, 15, 15, 0, 0, [0, 0, 0, 0, 1, 1, 1, 1]>, <264, 12, 27, 15, 15, 0, 0, [0, 0, 0, 0, 1, 1, 1, 1]>, <265, 13, 28, 15, 15, 0, 0, [0, 0, 0, 0, 1, 1, 1, 1]>, <266, 14, 29, 15, 15, 0, 0, [0, 0, 0, 0, 1, 1, 1, 1]>, <267, 2, 12, 10, 16, 0, 0, [1, 1, 1, 1, 0, 0, 0, 0]>, <268, 3, 13, 10, 16, 0, 0, [1, 1, 1, 1, 0, 0, 0, 0]>, <269, 4, 14, 10, 16, 0, 0, [1, 1, 1, 1, 0, 0, 0, 0]>, <270, 5, 15, 10, 16, 0, 0, [1, 1, 1, 1, 0, 0, 0, 0]>, <271, 10, 20, 10, 16, 0, 0, [1, 1, 1, 1, 0, 0, 0, 0]>, <272, 11, 21, 10, 16, 0, 0, [1, 1, 1, 1, 0, 0, 0, 0]>, <273, 12, 22, 10, 16, 0, 0, [1, 1, 1, 1, 0, 0, 0, 0]>, <274, 14, 24, 10, 16, 0, 0, [1, 1, 1, 1, 0, 0, 0, 0]>, <275, 15, 25, 10, 16, 0, 0, [1, 1, 1, 1, 0, 0, 0, 0]>, <276, 16, 26, 10, 16, 0, 0, [1, 1, 1, 1, 0, 0, 0, 0]>, <277, 17, 27, 10, 16, 0, 0, [1, 1, 1, 1, 0, 0, 0, 0]>, <278, 18, 28, 10, 16, 0, 0, [1, 1, 1, 1, 0, 0, 0, 0]>, <279, 19, 29, 10, 16, 0, 0, [1, 1, 1, 1, 0, 0, 0, 0]>, <280, 0, 13, 13, 17, 0, 1, [0, 1, 1, 1, 1, 0, 0, 0]>, <281, 1, 14, 13, 17, 0, 1, [0, 1, 1, 1, 1, 0, 0, 0]>, <282, 2, 15, 13, 17, 0, 1, [0, 1, 1, 1, 1, 0, 0, 0]>, <283, 3, 16, 13, 17, 0, 1, [0, 1, 1, 1, 1, 0, 0, 0]>, <284, 4, 17, 13, 17, 0, 1, [0, 1, 1, 1, 1, 0, 0, 0]>, <285, 5, 18, 13, 17, 0, 1, [0, 1, 1, 1, 1, 0, 0, 0]>, <286, 7, 20, 13, 17, 0, 1, [0, 1, 1, 1, 1, 0, 0, 0]>, <287, 8, 21, 13, 17, 0, 1, [0, 1, 1, 1, 1, 0, 0, 0]>, <288, 9, 22, 13, 17, 0, 1, [0, 1, 1, 1, 1, 0, 0, 0]>, <289, 10, 23, 13, 17, 0, 1, [0, 1, 1, 1, 1, 0, 0, 0]>, <290, 11, 24, 13, 17, 0, 1, [0, 1, 1, 1, 1, 0, 0, 0]>, <291, 12, 25, 13, 17, 0, 1, [0, 1, 1, 1, 1, 0, 0, 0]>, <292, 13, 26, 13, 17, 0, 1, [0, 1, 1, 1, 1, 0, 0, 0]>, <293, 14, 27, 13, 17, 0, 1, [0, 1, 1, 1, 1, 0, 0, 0]>, <294, 15, 28, 13, 17, 0, 1, [0, 1, 1, 1, 1, 0, 0, 0]>, <295, 16, 29, 13, 17, 0, 1, [0, 1, 1, 1, 1, 0, 0, 0]>, <296, 1, 12, 11, 18, 0, 1, [1, 1, 1, 1, 0, 0, 0, 0]>, <297, 2, 13, 11, 18, 0, 1, [1, 1, 1, 1, 0, 0, 0, 0]>, <298, 3, 14, 11, 18, 0, 1, [1, 1, 1, 1, 0, 0, 0, 0]>, <299, 4, 15, 11, 18, 0, 1, [1, 1, 1, 1, 0, 0, 0, 0]>, <300, 5, 16, 11, 18, 0, 1, [1, 1, 1, 1, 0, 0, 0, 0]>, <301, 9, 20, 11, 18, 0, 1, [1, 1, 1, 1, 0, 0, 0, 0]>, <302, 10, 21, 11, 18, 0, 1, [1, 1, 1, 1, 0, 0, 0, 0]>, <303, 11, 22, 11, 18, 0, 1, [1, 1, 1, 1, 0, 0, 0, 0]>, <304, 12, 23, 11, 18, 0, 1, [1, 1, 1, 1, 0, 0, 0, 0]>, <305, 13, 24, 11, 18, 0, 1, [1, 1, 1, 1, 0, 0, 0, 0]>, <306, 14, 25, 11, 18, 0, 1, [1, 1, 1, 1, 0, 0, 0, 0]>, <307, 15, 26, 11, 18, 0, 1, [1, 1, 1, 1, 0, 0, 0, 0]>, <308, 16, 27, 11, 18, 0, 1, [1, 1, 1, 1, 0, 0, 0, 0]>, <309, 17, 28, 11, 18, 0, 1, [1, 1, 1, 1, 0, 0, 0, 0]>, <310, 18, 29, 11, 18, 0, 1, [1, 1, 1, 1, 0, 0, 0, 0]>, <311, 0, 14, 14, 19, 0, 0, [0, 0, 0, 0, 1, 1, 1, 1]>, <312, 1, 15, 14, 19, 0, 0, [0, 0, 0, 0, 1, 1, 1, 1]>, <313, 2, 16, 14, 19, 0, 0, [0, 0, 0, 0, 1, 1, 1, 1]>, <314, 3, 17, 14, 19, 0, 0, [0, 0, 0, 0, 1, 1, 1, 1]>, <315, 4, 18, 14, 19, 0, 0, [0, 0, 0, 0, 1, 1, 1, 1]>, <316, 5, 19, 14, 19, 0, 0, [0, 0, 0, 0, 1, 1, 1, 1]>, <317, 6, 20, 14, 19, 0, 0, [0, 0, 0, 0, 1, 1, 1, 1]>, <318, 7, 21, 14, 19, 0, 0, [0, 0, 0, 0, 1, 1, 1, 1]>, <319, 8, 22, 14, 19, 0, 0, [0, 0, 0, 0, 1, 1, 1, 1]>, <320, 9, 23, 14, 19, 0, 0, [0, 0, 0, 0, 1, 1, 1, 1]>, <321, 10, 24, 14, 19, 0, 0, [0, 0, 0, 0, 1, 1, 1, 1]>, <322, 11, 25, 14, 19, 0, 0, [0, 0, 0, 0, 1, 1, 1, 1]>, <323, 12, 26, 14, 19, 0, 0, [0, 0, 0, 0, 1, 1, 1, 1]>, <324, 13, 27, 14, 19, 0, 0, [0, 0, 0, 0, 1, 1, 1, 1]>, <325, 14, 28, 14, 19, 0, 0, [0, 0, 0, 0, 1, 1, 1, 1]>, <326, 15, 29, 14, 19, 0, 0, [0, 0, 0, 0, 1, 1, 1, 1]>, <327, 0, 14, 14, 20, 0, 1, [0, 1, 1, 1, 1, 0, 0, 0]>, <328, 1, 15, 14, 20, 0, 1, [0, 1, 1, 1, 1, 0, 0, 0]>, <329, 2, 16, 14, 20, 0, 1, [0, 1, 1, 1, 1, 0, 0, 0]>, <330, 3, 17, 14, 20, 0, 1, [0, 1, 1, 1, 1, 0, 0, 0]>, <331, 4, 18, 14, 20, 0, 1, [0, 1, 1, 1, 1, 0, 0, 0]>, <332, 5, 19, 14, 20, 0, 1, [0, 1, 1, 1, 1, 0, 0, 0]>, <333, 6, 20, 14, 20, 0, 1, [0, 1, 1, 1, 1, 0, 0, 0]>, <334, 7, 21, 14, 20, 0, 1, [0, 1, 1, 1, 1, 0, 0, 0]>, <335, 8, 22, 14, 20, 0, 1, [0, 1, 1, 1, 1, 0, 0, 0]>, <336, 9, 23, 14, 20, 0, 1, [0, 1, 1, 1, 1, 0, 0, 0]>, <337, 10, 24, 14, 20, 0, 1, [0, 1, 1, 1, 1, 0, 0, 0]>, <338, 11, 25, 14, 20, 0, 1, [0, 1, 1, 1, 1, 0, 0, 0]>, <339, 12, 26, 14, 20, 0, 1, [0, 1, 1, 1, 1, 0, 0, 0]>, <340, 13, 27, 14, 20, 0, 1, [0, 1, 1, 1, 1, 0, 0, 0]>, <341, 14, 28, 14, 20, 0, 1, [0, 1, 1, 1, 1, 0, 0, 0]>, <342, 15, 29, 14, 20, 0, 1, [0, 1, 1, 1, 1, 0, 0, 0]>, <343, 0, 14, 14, 21, 0, 0, [0, 0, 0, 0, 1, 1, 1, 1]>, <344, 1, 15, 14, 21, 0, 0, [0, 0, 0, 0, 1, 1, 1, 1]>, <345, 2, 16, 14, 21, 0, 0, [0, 0, 0, 0, 1, 1, 1, 1]>, <346, 3, 17, 14, 21, 0, 0, [0, 0, 0, 0, 1, 1, 1, 1]>, <347, 4, 18, 14, 21, 0, 0, [0, 0, 0, 0, 1, 1, 1, 1]>, <348, 5, 19, 14, 21, 0, 0, [0, 0, 0, 0, 1, 1, 1, 1]>, <349, 6, 20, 14, 21, 0, 0, [0, 0, 0, 0, 1, 1, 1, 1]>, <350, 7, 21, 14, 21, 0, 0, [0, 0, 0, 0, 1, 1, 1, 1]>, <351, 8, 22, 14, 21, 0, 0, [0, 0, 0, 0, 1, 1, 1, 1]>, <352, 9, 23, 14, 21, 0, 0, [0, 0, 0, 0, 1, 1, 1, 1]>, <353, 10, 24, 14, 21, 0, 0, [0, 0, 0, 0, 1, 1, 1, 1]>, <354, 11, 25, 14, 21, 0, 0, [0, 0, 0, 0, 1, 1, 1, 1]>, <355, 12, 26, 14, 21, 0, 0, [0, 0, 0, 0, 1, 1, 1, 1]>, <356, 13, 27, 14, 21, 0, 0, [0, 0, 0, 0, 1, 1, 1, 1]>, <357, 14, 28, 14, 21, 0, 0, [0, 0, 0, 0, 1, 1, 1, 1]>, <358, 15, 29, 14, 21, 0, 0, [0, 0, 0, 0, 1, 1, 1, 1]>};
